nP = 3;
nT = 15;
nC1 = 12;
nC2 = 24;
nA = 99;
nD = 3;

arc_from = [3, 2, 3, 1, 1, 2, 1, 1, 1, 2, 3, 2, 1, 3, 3, 2, 1, 3, 3, 1, 1, 3, 2, 4, 5, 6, 6, 7, 7, 8, 8, 9, 9, 9, 10, 10, 10, 11, 11, 11, 12, 12, 12, 13, 14, 14, 14, 15, 15, 15, 16, 16, 16, 17, 18, 18, 20, 26, 24, 25, 24, 24, 29, 20, 21, 24, 25, 30, 26, 23, 29, 25, 27, 19, 26, 20, 24, 23, 24, 20, 19, 19, 20, 20, 21, 22, 22, 23, 23, 24, 25, 25, 26, 26, 27, 28, 29, 30, 30];
arc_to = [4, 4, 5, 5, 6, 7, 8, 9, 10, 11, 12, 12, 13, 13, 14, 14, 15, 15, 16, 16, 17, 17, 18, 20, 21, 28, 30, 26, 20, 30, 23, 25, 23, 27, 26, 30, 20, 19, 25, 24, 23, 19, 20, 29, 28, 19, 23, 19, 21, 26, 29, 26, 23, 28, 29, 26, 31, 32, 33, 34, 35, 36, 37, 38, 39, 40, 41, 42, 43, 44, 45, 46, 47, 48, 49, 50, 51, 52, 53, 54, 47, 31, 44, 32, 47, 50, 46, 32, 37, 48, 45, 53, 34, 31, 53, 40, 48, 33, 38];

supply = [535.70, 535.70, 535.70, 0.00, 0.00, 0.00, 0.00, 0.00, 0.00, 0.00, 0.00, 0.00, 0.00, 0.00, 0.00, 0.00, 0.00, 0.00, 0.00, 0.00, 0.00, 0.00, 0.00, 0.00, 0.00, 0.00, 0.00, 0.00, 0.00, 0.00, 0.00, 0.00, 0.00, 0.00, 0.00, 0.00, 0.00, 0.00, 0.00, 0.00, 0.00, 0.00, 0.00, 0.00, 0.00, 0.00, 0.00, 0.00, 0.00, 0.00, 0.00, 0.00, 0.00, 0.00];
demand = [0.00, 0.00, 0.00, 0.00, 0.00, 0.00, 0.00, 0.00, 0.00, 0.00, 0.00, 0.00, 0.00, 0.00, 0.00, 0.00, 0.00, 0.00, 62.68, 50.81, 52.24, 50.94, 59.92, 47.06, 45.26, 45.46, 50.72, 65.14, 58.37, 60.91, 20.00, 22.47, 24.38, 23.02, 29.17, 22.16, 28.15, 20.79, 20.32, 24.51, 25.35, 26.42, 21.16, 27.65, 29.01, 20.51, 22.11, 25.16, 23.77, 25.54, 25.76, 27.30, 23.41, 28.61];

max_capacity = [795, 1414, 3181];

install_cost = array2d(1..nA, 1..nD, [
  20, 24, 32,
  50, 62, 78,
  20, 24, 32,
  50, 62, 78,
  20, 24, 32,
  50, 62, 78,
  20, 24, 32,
  50, 62, 78,
  20, 24, 32,
  50, 62, 78,
  20, 24, 32,
  50, 62, 78,
  20, 24, 32,
  50, 62, 78,
  20, 24, 32,
  50, 62, 78,
  20, 24, 32,
  50, 62, 78,
  20, 24, 32,
  50, 62, 78,
  20, 24, 32,
  50, 62, 78,
  20, 24, 32,
  50, 62, 78,
  20, 24, 32,
  50, 62, 78,
  20, 24, 32,
  50, 62, 78,
  20, 24, 32,
  50, 62, 78,
  20, 24, 32,
  50, 62, 78,
  20, 24, 32,
  50, 62, 78,
  20, 24, 32,
  50, 62, 78,
  20, 24, 32,
  50, 62, 78,
  20, 24, 32,
  50, 62, 78,
  20, 24, 32,
  50, 62, 78,
  20, 24, 32,
  50, 62, 78,
  20, 24, 32,
  50, 62, 78,
  20, 24, 32,
  50, 62, 78,
  20, 24, 32,
  50, 62, 78,
  20, 24, 32,
  50, 62, 78,
  20, 24, 32,
  50, 62, 78,
  20, 24, 32,
  50, 62, 78,
  20, 24, 32,
  50, 62, 78,
  20, 24, 32,
  50, 62, 78,
  20, 24, 32,
  50, 62, 78,
  20, 24, 32,
  50, 62, 78,
  20, 24, 32,
  50, 62, 78,
  20, 24, 32,
  50, 62, 78,
  20, 24, 32,
  50, 62, 78,
  20, 24, 32,
  50, 62, 78,
  20, 24, 32,
  50, 62, 78,
  20, 24, 32,
  50, 62, 78,
  20, 24, 32,
  50, 62, 78,
  20, 24, 32,
  50, 62, 78,
  20, 24, 32,
  50, 62, 78,
  20, 24, 32,
  50, 62, 78,
  20, 24, 32,
  50, 62, 78,
  20, 24, 32,
  50, 62, 78,
  20, 24, 32,
  50, 62, 78,
  20, 24, 32,
  50, 62, 78,
  20, 24, 32,
  50, 62, 78,
  20, 24, 32,
  50, 62, 78,
  20, 24, 32,
  50, 62, 78,
  20, 24, 32
]);

trans_cost = [8.30, 5.84, 6.60, 7.04, 5.40, 6.34, 6.02, 6.15, 4.84, 6.04, 6.75, 8.18, 7.44, 9.23, 4.85, 7.31, 6.28, 9.28, 4.79, 4.74, 5.10, 2.81, 5.21, 4.86, 6.23, 6.51, 8.81, 7.43, 5.13, 4.65, 6.74, 4.02, 8.75, 7.77, 5.30, 3.43, 8.03, 5.83, 7.86, 3.61, 5.10, 6.01, 6.07, 5.32, 6.93, 4.40, 5.79, 6.18, 6.77, 7.07, 4.31, 3.70, 7.92, 6.50, 4.88, 8.33, 6.17, 7.77, 6.10, 9.09, 8.63, 5.63, 7.46, 6.97, 8.05, 4.55, 7.03, 7.59, 3.36, 4.23, 2.94, 5.60, 7.08, 8.25, 6.11, 8.44, 3.93, 3.44, 5.92, 6.58, 5.95, 2.90, 5.87, 4.04, 7.00, 6.55, 4.59, 5.23, 4.41, 5.91, 7.43, 4.52, 6.76, 5.20, 4.81, 5.84, 4.45, 5.17, 4.20];

% Metadata: {'tamaño': 'medianas', 'numero': 3, 'grupo': 5, 'demanda_total': 1236.24, 'suministro_total': 1607.1, 'factor_holgura': 1.3, 'num_arcos': 99, 'conectividad': {'plantas_tanques': 23, 'tanques_transbordo': 33, 'transbordo_finales': 43}}
% Total supply: 1607.10
% Total demand: 1236.24
% Balance factor: 1.30
